p cnf 11 64 
c Factors encoded in variables 1-6 and 7-11
c Target number: 1357
c Factors: 59 x 23
-4 -9 8 0
-5 -4 10 9 0
-5 4 3 -9 -8 0
5 9 0
-4 -3 -2 8 0
-5 -4 3 2 -10 0
-5 -3 -10 -9 -8 0
5 10 8 0
-4 -3 -2 9 -8 0
4 3 -2 -10 0
-5 -4 3 -10 -8 0
11 0
-5 -4 -3 -2 0
5 -3 2 -9 0
4 3 10 9 0
-4 2 -10 0
-5 -4 -2 -10 -8 0
5 2 -10 0
5 4 3 2 -8 0
1 0
-5 4 -3 8 0
-4 -10 -9 -8 0
-5 4 3 2 -10 9 8 0
4 10 9 8 0
5 4 9 8 0
-4 -10 9 8 0
7 0
4 -3 -2 10 -9 -8 0
5 -4 8 0
5 4 3 -9 0
5 4 -3 -10 9 0
4 10 0
5 4 0
-4 9 -8 0
-5 3 2 10 0
-5 4 -3 -9 0
-5 -4 -3 -10 0
-5 -3 2 10 -9 -8 0
-3 -9 0
-4 3 2 -10 0
-5 3 -2 -10 8 0
-5 8 0
4 -3 10 9 -8 0
-10 -9 -8 0
5 4 10 9 0
-4 -2 -10 -9 8 0
4 -3 -2 10 0
4 2 10 0
5 10 0
4 -10 -8 0
10 9 8 0
5 -3 10 -9 0
-2 8 0
-4 -3 -2 -10 0
-2 -10 8 0
5 -2 10 0
4 3 10 8 0
-5 -4 -10 9 8 0
6 0
2 -8 0
3 9 0
-5 -4 -3 8 0
5 4 -10 0
5 10 9 0
